
ACE v2.3 

  instance
    name:main

  Loading variables...

  Loading constraints...
  clique 1 of size 9 {grid[0][0] grid[0][1] grid[0][2] grid[0][3] grid[0][4] grid[0][5] grid[0][6] grid[0][7] grid[0][8]}
  clique 2 of size 9 {grid[6][6] grid[6][7] grid[6][8] grid[7][6] grid[7][7] grid[7][8] grid[8][6] grid[8][7] grid[8][8]}
  clique 3 of size 9 {grid[3][0] grid[3][1] grid[3][2] grid[3][3] grid[3][4] grid[3][5] grid[3][6] grid[3][7] grid[3][8]}
  clique 4 of size 9 {grid[1][0] grid[1][1] grid[1][2] grid[1][3] grid[1][4] grid[1][5] grid[1][6] grid[1][7] grid[1][8]}
  clique 5 of size 9 {grid[5][0] grid[5][1] grid[5][2] grid[5][3] grid[5][4] grid[5][5] grid[5][6] grid[5][7] grid[5][8]}
  clique 6 of size 9 {grid[6][0] grid[6][1] grid[6][2] grid[7][0] grid[7][1] grid[7][2] grid[8][0] grid[8][1] grid[8][2]}
  clique 7 of size 9 {grid[4][0] grid[4][1] grid[4][2] grid[4][3] grid[4][4] grid[4][5] grid[4][6] grid[4][7] grid[4][8]}
  clique 8 of size 9 {grid[2][0] grid[2][1] grid[2][2] grid[2][3] grid[2][4] grid[2][5] grid[2][6] grid[2][7] grid[2][8]}
  clique 9 of size 9 {grid[6][3] grid[6][4] grid[6][5] grid[7][3] grid[7][4] grid[7][5] grid[8][3] grid[8][4] grid[8][5]}

  domains
    types:1  values:729  sizes:[9:81]
  variables
    count:81  arrays:1  degrees:[25:3,26:78]
  constraints
    count:1059  specific:1059  cliques:9  arities:[1:78,2:972,9:9]
    distribution:[AllDifferentComplete:9,Extension1:78,Sub2NE:972]
    wck:0.26  cpu:0.5  mem:24M175

  Building solver... 

  solver
    guaranteedAC:true
    wck:0.30  cpu:0.515  mem:28M692

  preprocessing
    effs:569  values:81  removedByAC:648  unsat:false
    wck:0.003  cpu:0.515  mem:28M692

    run1  dpts:-1..80  effs:569  wck:0.00  sols:1

  global
    effs:569
    stop:REACHED_GOAL  sols:1  sol1Cpu:0.531
    wck:0.31  cpu:0.531  mem:28M692


  Solution 1 in JSON format:
   {
    grid: [
     [1, 2, 3, 4, 5, 6, 7, 8, 9],
     [4, 5, 6, 7, 8, 9, 1, 2, 3],
     [7, 8, 9, 1, 2, 3, 4, 5, 6],
     [2, 3, 4, 5, 6, 7, 8, 9, 1],
     [5, 6, 7, 8, 9, 1, 2, 3, 4],
     [8, 9, 1, 2, 3, 4, 5, 6, 7],
     [3, 4, 5, 6, 7, 8, 9, 1, 2],
     [6, 7, 8, 9, 1, 2, 3, 4, 5],
     [9, 1, 2, 3, 4, 5, 6, 7, 8]
    ]
   }

s SATISFIABLE

v <instantiation id='sol1' type='solution'> <list> grid[][] </list> <values> 1 2 3 4 5 6 7 8 9 4 5 6 7 8 9 1 2 3 7 8 9 1 2 3 4 5 6 2 3 4 5 6 7 8 9 1 5 6 7 8 9 1 2 3 4 8 9 1 2 3 4 5 6 7 3 4 5 6 7 8 9 1 2 6 7 8 9 1 2 3 4 5 9 1 2 3 4 5 6 7 8 </values> </instantiation>

d WRONG DECISIONS 0
d FOUND SOLUTIONS 1
d INCOMPLETE EXPLORATION

c real time : 0.531
